Copyright (C) 2013-2015, Filipe Brandao
Build (method = -2)
  #dp: 4806
  Step-3' Graph: 87 vertices and 1580 arcs (0.00s)
  Step-4' Graph: 87 vertices and 1580 arcs (0.00s)
  #V4/#V3 = 1.00
  #A4/#A3 = 1.00
Ready! (0.00s)
Optimize a model with 177 rows, 1581 columns and 4577 nonzeros
Found heuristic solution: objective 402
Presolve removed 46 rows and 54 columns
Presolve time: 0.01s
Presolved: 131 rows, 1527 columns, 4401 nonzeros
Variable types: 0 continuous, 1527 integer (86 binary)
Optimize a model with 131 rows, 1527 columns and 4401 nonzeros
Presolved: 131 rows, 1527 columns, 4401 nonzeros

Root barrier log...

Ordering time: 0.00s

Barrier statistics:
 AA' NZ     : 2.366e+03
 Factor NZ  : 4.426e+03
 Factor Ops : 2.006e+05 (less than 1 second per iteration)
 Threads    : 1

                  Objective                Residual
Iter       Primal          Dual         Primal    Dual     Compl     Time
   0   7.82947248e+03 -2.35605477e+04  5.07e+04 1.06e-01  8.88e+01     0s
   1   2.28338440e+03 -7.18920137e+03  8.28e+03 9.99e-16  1.52e+01     0s
   2   6.18094241e+02 -3.00206656e+03  6.18e+02 1.24e-14  1.94e+00     0s
   3   4.57693071e+02 -1.12073527e+03  7.33e+01 4.33e-15  5.74e-01     0s
   4   3.79075310e+02 -2.98231802e+02  1.47e+01 2.22e-15  2.28e-01     0s
   5   3.22703859e+02 -4.12566022e+01  5.49e+00 1.83e-15  1.20e-01     0s
   6   2.96398644e+02  7.65619123e+01  2.39e+00 2.50e-15  7.20e-02     0s
   7   2.69399565e+02  1.90701782e+02  7.17e-01 2.00e-15  2.57e-02     0s
   8   2.59013783e+02  2.44508157e+02  2.21e-01 1.68e-15  4.78e-03     0s
   9   2.55307131e+02  2.54301108e+02  2.04e-02 1.72e-15  3.35e-04     0s
  10   2.55001149e+02  2.54997267e+02  7.33e-06 1.49e-15  1.26e-06     0s
  11   2.55000001e+02  2.54999997e+02  1.60e-13 1.85e-15  1.26e-09     0s
  12   2.55000000e+02  2.55000000e+02  1.95e-13 1.28e-15  1.26e-12     0s

Barrier solved model in 12 iterations and 0.01 seconds
Optimal objective 2.55000000e+02


Root relaxation: objective 2.550000e+02, 443 iterations, 0.01 seconds

    Nodes    |    Current Node    |     Objective Bounds      |     Work
 Expl Unexpl |  Obj  Depth IntInf | Incumbent    BestBd   Gap | It/Node Time

     0     0  255.00000    0   11  402.00000  255.00000  36.6%     -    0s
H    0     0                     256.0000000  255.00000  0.39%     -    0s
H    0     0                     255.0000000  255.00000  0.00%     -    0s

Explored 0 nodes (635 simplex iterations) in 0.03 seconds
Thread count was 1 (of 4 available processors)

Optimal solution found (tolerance 0.00e+00)
Best objective 2.550000000000e+02, best bound 2.550000000000e+02, gap 0.0%
Preprocessing time: 0.01 seconds
Gurobi run time: 0.03 seconds
Total run time: 0.04 seconds
Objective: 255
Solution:
1 x [i=1]
1 x [i=1, i=90]
4 x [i=2, i=90]
6 x [i=3]
5 x [i=4, i=87]
8 x [i=5, i=88]
1 x [i=5, i=89]
2 x [i=6, i=85]
2 x [i=6, i=87]
6 x [i=7, i=85]
1 x [i=8, i=83]
5 x [i=8, i=84]
5 x [i=9, i=82]
3 x [i=10, i=83]
1 x [i=11, i=81]
5 x [i=12, i=79]
3 x [i=13, i=78]
5 x [i=14, i=89]
1 x [i=15, i=76]
2 x [i=15, i=79]
8 x [i=15, i=80]
1 x [i=15, i=82]
6 x [i=16, i=75]
7 x [i=17, i=74]
5 x [i=17, i=76]
8 x [i=18, i=72]
4 x [i=19, i=71]
1 x [i=20, i=73]
7 x [i=20, i=77]
6 x [i=21, i=69]
1 x [i=21, i=73]
2 x [i=22, i=68]
3 x [i=22, i=70]
1 x [i=22, i=73]
7 x [i=23, i=67]
1 x [i=24, i=66]
7 x [i=24, i=68]
5 x [i=25, i=65]
1 x [i=25, i=66]
4 x [i=26, i=64]
4 x [i=27, i=66]
1 x [i=28, i=63]
3 x [i=28, i=64]
2 x [i=29, i=61]
8 x [i=29, i=62]
1 x [i=29, i=63]
4 x [i=30, i=60]
1 x [i=30, i=85]
2 x [i=30, i=86]
3 x [i=31, i=67]
1 x [i=32]
4 x [i=32, i=59]
2 x [i=33]
1 x [i=33, i=57]
1 x [i=34, i=56]
7 x [i=34, i=58]
5 x [i=35, i=55]
3 x [i=35, i=56]
4 x [i=36, i=82]
3 x [i=37, i=53]
2 x [i=38, i=52]
1 x [i=38, i=53]
6 x [i=38, i=54]
1 x [i=39, i=51]
3 x [i=40, i=50]
2 x [i=40, i=51]
5 x [i=41, i=49]
3 x [i=42, i=48]
2 x [i=43, i=47]
3 x [i=43, i=48]
1 x [i=43, i=51]
5 x [i=44, i=46]
3 x [i=45, i=45]
1 x [i=46, i=47]
1 x [i=47, i=48]
1 x [i=47, i=49]
2 x [i=50, i=51]
1 x [i=50, i=50]
